10 7 6 17 7 7 3 9 7 9 8 7 
13 13 1 18 17 12 16 1 16 11 8 3 
6 13 11 17 9 18 9 19 6 5 16 14 
19 3 18 19 9 17 8 5 19 10 3 15 
11 10 14 9 12 7 10 4 20 1 4 17 
11 16 17 16 20 9 2 5 11 3 14 2 
13 9 13 5 3 4 20 4 20 20 15 4 
3 2 16 13 12 18 17 8 12 18 4 5 
20 10 6 3 15 11 13 15 17 4 17 2 
9 7 3 18 17 5 2 12 3 4 11 16 
20 3 15 5 19 3 13 17 14 13 11 10 
19 5 19 20 20 17 18 9 11 12 13 20 
